% demand
num_movements = 22;
loading_factor = [900, 1550, 1700, 1550, 1250, 1700, 800, 1300, 1800, 1100, 1300, 1750, 1350, 1000, 1700, 1850, 950, 1600, 1150, 2000, 950, 1450];
pickup_time = [0, 0, 1, 1, 1, 1, 1, 3, 3, 3, 5, 6, 6, 7, 7, 7, 7, 8, 8, 8, 10, 10];
delivery_time = [1, 1, 2, 6, 7, 3, 3, 5, 6, 6, 6, 7, 8, 12, 8, 8, 8, 12, 9, 12, 11, 12];

% transporter definition
total_capacity = 7000;
num_decks = 3;
capacity = [3000, 1000, 3000];

% ways out of decks
num_ways_out = 1;
paths_out = array3d(decks, ways_out, decks, [
% ways out of deck d1
2, 3, 0, 

% ways out of deck d2
3, 0, 0, 

% ways out of deck d3
0, 0, 0,	

]);

